
Gurobi 11.0.1 (win64) logging started Mon May 13 14:56:30 2024

Set parameter LogFile to value "output/solver_log12.txt"
Gurobi Optimizer version 11.0.1 build v11.0.1rc0 (win64 - Windows 11.0 (22631.2))

CPU model: 11th Gen Intel(R) Core(TM) i7-1165G7 @ 2.80GHz, instruction set [SSE2|AVX|AVX2|AVX512]
Thread count: 4 physical cores, 8 logical processors, using up to 8 threads

Optimize a model with 1258 rows, 401 columns and 23081 nonzeros
Model fingerprint: 0x9cd3244c
Variable types: 88 continuous, 313 integer (313 binary)
Coefficient statistics:
  Matrix range     [4e-01, 1e+05]
  Objective range  [1e+00, 1e+02]
  Bounds range     [1e+00, 1e+00]
  RHS range        [1e-02, 1e+05]

User MIP start produced solution with objective 57159.3 (0.01s)
User MIP start produced solution with objective 57159.3 (0.01s)
Loaded user MIP start with objective 57159.3

Presolve removed 174 rows and 178 columns
Presolve time: 0.02s
Presolved: 1084 rows, 223 columns, 21630 nonzeros
Variable types: 81 continuous, 142 integer (140 binary)

Root relaxation: cutoff, 47 iterations, 0.00 seconds (0.00 work units)

    Nodes    |    Current Node    |     Objective Bounds      |     Work
 Expl Unexpl |  Obj  Depth IntInf | Incumbent    BestBd   Gap | It/Node Time

     0     0     cutoff    0      57159.2633 57159.2633  0.00%     -    0s

Explored 1 nodes (47 simplex iterations) in 0.07 seconds (0.08 work units)
Thread count was 8 (of 8 available processors)

Solution count 2: 57159.3 57159.3 

Optimal solution found (tolerance 1.00e-04)
Best objective 5.715926325593e+04, best bound 5.715926325593e+04, gap 0.0000%
